NAME: tsp50_22
COMMENT: 50-tsp problem (Padberg/Rinaldi)
TYPE: TSP
DIMENSION: 50
EDGE_WEIGHT_TYPE : EUC_2D
NODE_COORD_SECTION
1 16 3
2 36 36
3 8 13
4 28 11
5 29 6
6 20 2
7 19 32
8 15 16
9 2 12
10 33 27
11 21 14
12 2 8
13 21 29
14 35 39
15 34 31
16 32 35
17 37 12
18 31 14
19 11 10
20 3 25
21 20 28
22 10 19
23 0 39
24 11 27
25 23 2
26 5 39
27 15 2
28 16 25
29 35 34
30 28 21
31 26 36
32 9 32
33 2 38
34 9 17
35 31 5
36 9 18
37 9 10
38 21 10
39 17 30
40 25 30
41 34 6
42 24 8
43 24 1
44 29 10
45 11 18
46 36 20
47 18 18
48 27 22
49 31 29
50 31 28
